p cnf 1391 2164
6 19 -39 101 0
-39 -48 -101 102 0
-48 -55 -102 103 0
-55 59 -103 104 0
59 -72 -104 105 0
-72 96 98 -105 0
-2 18 36 106 0
36 -42 -106 107 0
-42 -86 -107 108 0
-86 90 -98 -108 0
21 -43 -47 -59 0
13 37 109 110 0
13 37 109 -110 0
13 37 -109 110 0
13 37 -109 -110 0
20 83 -96 111 0
20 83 -96 -111 0
48 -79 -88 112 0
48 -79 -88 -112 0
30 -92 -94 100 0
6 -17 56 113 0
56 57 -113 114 0
57 -66 -114 115 0
-66 -89 -95 -115 0
26 50 67 116 0
67 77 -116 117 0
77 78 -117 118 0
78 -81 -91 -118 0
20 -59 62 119 0
62 -68 71 -119 0
17 26 -64 80 0
70 -77 86 -93 0
12 -20 -37 55 0
-9 46 -50 120 0
-50 -72 -120 121 0
-72 75 -121 122 0
75 81 -122 123 0
81 -88 -91 -123 0
-24 27 -39 124 0
-39 52 -124 125 0
52 -57 -125 126 0
-57 -73 -126 127 0
-73 76 -79 -127 0
11 23 -45 128 0
-45 -54 -128 129 0
-54 65 -129 130 0
65 -66 -84 -130 0
3 -31 33 72 0
21 76 131 132 0
21 76 131 -132 0
21 76 -131 132 0
21 76 -131 -132 0
-11 -40 -66 133 0
-11 -40 -66 -133 0
-59 74 134 135 0
-59 74 134 -135 0
-59 74 -134 135 0
-59 74 -134 -135 0
-4 33 -39 -81 0
26 -30 -49 136 0
-49 -58 -136 137 0
-58 78 -92 -137 0
-26 34 -72 138 0
-72 -86 -138 139 0
-86 92 99 -139 0
-20 33 58 140 0
-20 33 58 -140 0
2 -8 -18 25 0
33 43 -71 87 0
50 -51 -73 97 0
-12 -63 -74 -79 0
1 53 -66 -81 0
6 11 27 141 0
27 29 -141 142 0
29 -37 -142 143 0
-37 -55 -143 144 0
-55 58 -144 145 0
58 -68 83 -145 0
8 13 28 146 0
28 -65 -146 147 0
-65 -77 -83 -147 0
26 -46 60 148 0
60 -62 -82 -148 0
68 -69 81 149 0
68 -69 81 -149 0
1 -3 -7 150 0
-7 34 -150 151 0
34 50 -151 152 0
50 52 -152 153 0
52 -74 -153 154 0
-74 77 -154 155 0
77 79 -100 -155 0
8 57 -62 90 0
-35 -74 78 -95 0
-20 -32 52 156 0
52 -62 -100 -156 0
15 -51 -60 66 0
-3 -12 -19 157 0
-19 23 -157 158 0
23 -36 -158 159 0
-36 60 62 -159 0
-2 5 -20 160 0
-20 70 83 -160 0
-45 -74 -85 161 0
-45 -74 -85 -161 0
16 -21 24 162 0
24 -63 -95 -162 0
-6 -32 -43 163 0
-43 54 -96 -163 0
-42 47 -60 164 0
-60 78 -164 165 0
78 -88 -165 166 0
-88 92 -166 167 0
92 95 -97 -167 0
25 81 86 93 0
18 25 26 87 0
-20 23 -36 168 0
-36 -53 -168 169 0
-53 -90 100 -169 0
-15 69 77 170 0
77 80 87 -170 0
-10 32 51 171 0
51 -57 -171 172 0
-57 -74 -76 -172 0
60 -77 -82 173 0
-82 85 99 -173 0
-10 25 -50 174 0
-50 68 -174 175 0
68 71 -175 176 0
71 77 -93 -176 0
10 21 -55 -84 0
26 -40 75 -77 0
14 23 63 177 0
63 84 85 -177 0
24 65 80 92 0
-13 79 -82 178 0
-13 79 -82 -178 0
-8 -12 179 180 0
-8 -12 179 -180 0
-8 -12 -179 180 0
-8 -12 -179 -180 0
16 47 -64 181 0
16 47 -64 -181 0
20 -43 -47 -59 0
-38 40 -41 182 0
-41 51 -182 183 0
51 -55 -183 184 0
-55 -58 -184 185 0
-58 62 -98 -185 0
-11 -22 61 186 0
61 85 -186 187 0
85 88 -187 188 0
88 91 -94 -188 0
1 19 -24 100 0
-28 33 37 189 0
37 -49 -189 190 0
-49 51 55 -190 0
9 -34 56 191 0
56 60 -191 192 0
60 72 -89 -192 0
2 12 -21 193 0
-21 -73 -92 -193 0
2 -5 -53 194 0
2 -5 -53 -194 0
37 98 195 196 0
37 98 195 -196 0
37 98 -195 196 0
37 98 -195 -196 0
2 -17 28 197 0
28 34 -197 198 0
34 37 -198 199 0
37 39 -199 200 0
39 -53 -69 -200 0
-7 -31 -36 -49 0
13 18 -21 201 0
-21 -34 -201 202 0
-34 -76 -202 203 0
-76 -81 -88 -203 0
2 -4 -7 204 0
-7 -28 -51 -204 0
59 83 -93 205 0
59 83 -93 -205 0
33 34 -49 206 0
-49 87 95 -206 0
1 -10 31 47 0
-4 8 10 207 0
10 -13 21 -207 0
2 8 -45 92 0
-34 -38 -42 208 0
-42 69 -93 -208 0
6 -71 -81 209 0
-81 92 93 -209 0
23 -28 -45 210 0
-45 52 -210 211 0
52 57 -211 212 0
57 -62 -212 213 0
-62 72 -93 -213 0
9 -11 -16 214 0
-16 20 -214 215 0
20 26 -215 216 0
26 37 -216 217 0
37 46 89 -217 0
-11 15 27 218 0
27 -30 -218 219 0
-30 36 -219 220 0
36 -42 62 -220 0
63 80 -98 221 0
63 80 -98 -221 0
-48 -68 -71 -87 0
-35 -65 -74 -94 0
-8 -12 53 222 0
53 64 -222 223 0
64 -65 -223 224 0
-65 -75 -224 225 0
-75 -78 -225 226 0
-78 81 -226 227 0
81 -89 -91 -227 0
-1 14 -48 228 0
-48 63 85 -228 0
18 46 -56 229 0
-56 -64 -69 -229 0
-39 -92 -94 230 0
-39 -92 -94 -230 0
-3 -6 -31 44 0
7 -47 51 231 0
7 -47 51 -231 0
20 43 48 232 0
20 43 48 -232 0
1 -55 -95 233 0
1 -55 -95 -233 0
1 -15 -30 35 0
25 67 234 235 0
25 67 234 -235 0
25 67 -234 235 0
25 67 -234 -235 0
-2 19 236 237 0
-2 19 236 -237 0
-2 19 -236 237 0
-2 19 -236 -237 0
19 -25 47 238 0
47 48 -238 239 0
48 -60 -90 -239 0
-11 15 -30 240 0
-30 44 -240 241 0
44 47 -241 242 0
47 49 81 -242 0
-13 33 53 243 0
53 56 -243 244 0
56 57 -244 245 0
57 -89 91 -245 0
7 -21 43 246 0
7 -21 43 -246 0
30 41 -87 247 0
30 41 -87 -247 0
-14 -46 49 -98 0
9 10 62 248 0
9 10 62 -248 0
19 38 40 249 0
40 42 -249 250 0
42 77 -250 251 0
77 -86 89 -251 0
36 41 -83 252 0
36 41 -83 -252 0
-14 -27 -37 253 0
-14 -27 -37 -253 0
8 65 -74 -86 0
2 -38 97 254 0
2 -38 97 -254 0
11 12 -47 255 0
-47 56 -255 256 0
56 66 -96 -256 0
-4 -23 25 257 0
25 30 -257 258 0
30 -36 92 -258 0
33 -35 -68 259 0
-68 -88 99 -259 0
15 17 -32 260 0
-32 34 70 -260 0
-40 -62 -72 261 0
-40 -62 -72 -261 0
-35 -58 -73 262 0
-35 -58 -73 -262 0
-17 -30 52 91 0
-8 18 -49 263 0
-49 -51 -263 264 0
-51 -74 -264 265 0
-74 76 -77 -265 0
3 -15 -19 266 0
-19 55 -266 267 0
55 93 -94 -267 0
-36 67 94 268 0
-36 67 94 -268 0
3 32 88 -91 0
78 89 100 269 0
78 89 100 -269 0
57 -71 75 270 0
75 -86 -91 -270 0
-13 17 19 271 0
19 40 -271 272 0
40 -47 -272 273 0
-47 -56 -273 274 0
-56 -73 -78 -274 0
25 40 96 97 0
-6 -31 42 275 0
42 43 -275 276 0
43 -58 -276 277 0
-58 -61 88 -277 0
20 23 45 278 0
45 -60 -69 -278 0
20 -41 53 -54 0
6 -12 -24 279 0
-24 -45 -279 280 0
-45 47 -280 281 0
47 48 -281 282 0
48 -50 -282 283 0
-50 52 -283 284 0
52 53 -284 285 0
53 -55 -60 -285 0
19 -40 286 287 0
19 -40 286 -287 0
19 -40 -286 287 0
19 -40 -286 -287 0
11 26 -49 288 0
-49 -58 -288 289 0
-58 70 -289 290 0
70 81 -99 -290 0
-33 -83 91 92 0
-26 44 -62 97 0
19 36 -76 291 0
-76 81 98 -291 0
1 15 -30 292 0
-30 -46 -292 293 0
-46 -54 82 -293 0
30 -34 -73 79 0
20 34 -45 294 0
-45 56 -95 -294 0
22 -68 -73 295 0
22 -68 -73 -295 0
3 10 19 296 0
19 21 -296 297 0
21 26 -297 298 0
26 37 -298 299 0
37 -51 -299 300 0
-51 -54 -300 301 0
-54 64 90 -301 0
-22 30 39 302 0
-22 30 39 -302 0
-1 6 -26 303 0
-26 -57 -303 304 0
-57 -66 -304 305 0
-66 77 -305 306 0
77 78 -306 307 0
78 85 -95 -307 0
-17 -49 68 308 0
68 -73 84 -308 0
-1 26 -43 309 0
-43 84 88 -309 0
24 -57 -70 89 0
2 20 -22 310 0
-22 -72 91 -310 0
7 69 79 311 0
79 93 -99 -311 0
-20 -58 78 312 0
-20 -58 78 -312 0
40 41 -46 313 0
-46 -60 -313 314 0
-60 68 -70 -314 0
24 52 315 316 0
24 52 315 -316 0
24 52 -315 316 0
24 52 -315 -316 0
-2 6 -28 317 0
-28 32 -317 318 0
32 -64 75 -318 0
-24 47 -62 319 0
-62 -67 -319 320 0
-67 -71 -320 321 0
-71 84 89 -321 0
-25 49 -56 322 0
-25 49 -56 -322 0
22 -25 32 323 0
32 67 -323 324 0
67 -77 -88 -324 0
66 68 86 325 0
66 68 86 -325 0
-21 27 52 -83 0
41 91 94 326 0
41 91 94 -326 0
-77 80 -90 327 0
-77 80 -90 -327 0
6 -11 64 328 0
64 65 96 -328 0
-23 63 69 329 0
69 84 99 -329 0
-22 25 -46 -63 0
-36 55 60 330 0
60 69 -81 -330 0
-6 -32 43 331 0
43 45 -331 332 0
45 -66 -332 333 0
-66 -68 -333 334 0
-68 77 -334 335 0
77 -83 -87 -335 0
-6 -35 86 91 0
16 44 71 336 0
16 44 71 -336 0
-16 23 -29 60 0
17 -21 -83 -93 0
-18 49 52 337 0
52 -59 65 -337 0
-3 -9 68 338 0
68 82 83 -338 0
-22 31 -34 339 0
-34 -58 -339 340 0
-58 -62 -340 341 0
-62 90 -341 342 0
90 91 -98 -342 0
-5 -18 45 343 0
45 47 -343 344 0
47 64 -344 345 0
64 -77 -345 346 0
-77 84 -85 -346 0
30 -40 56 347 0
56 -67 -99 -347 0
-4 -9 -39 348 0
-39 84 -348 349 0
84 91 -92 -349 0
-2 -16 -20 350 0
-20 -24 -350 351 0
-24 34 -351 352 0
34 -53 -352 353 0
-53 -73 -353 354 0
-73 78 -354 355 0
78 -85 -100 -355 0
-5 -34 36 76 0
-4 -7 20 356 0
20 87 94 -356 0
16 -21 28 357 0
28 29 -357 358 0
29 64 -77 -358 0
3 5 18 359 0
18 19 -359 360 0
19 35 -360 361 0
35 39 -361 362 0
39 -45 -69 -362 0
11 14 16 363 0
16 -30 -363 364 0
-30 -47 -364 365 0
-47 73 -83 -365 0
-10 -16 98 366 0
-10 -16 98 -366 0
-6 27 -46 -87 0
22 -35 -45 367 0
-45 -56 -367 368 0
-56 99 100 -368 0
9 15 58 96 0
-24 -31 58 369 0
58 -79 87 -369 0
15 -28 -51 370 0
-51 -70 83 -370 0
13 14 -25 371 0
13 14 -25 -371 0
26 -27 -38 372 0
-38 -53 -372 373 0
-53 -56 -373 374 0
-56 -77 -89 -374 0
-15 -20 26 375 0
26 27 -375 376 0
27 55 -376 377 0
55 87 -377 378 0
87 -92 99 -378 0
35 -64 67 379 0
67 -76 -79 -379 0
-24 29 58 380 0
58 -73 77 -380 0
11 -33 42 381 0
42 -43 -46 -381 0
-48 58 382 383 0
-48 58 382 -383 0
-48 58 -382 383 0
-48 58 -382 -383 0
11 19 -27 384 0
-27 -34 -73 -384 0
-7 10 -11 385 0
-11 45 -385 386 0
45 57 -386 387 0
57 81 -387 388 0
81 -82 -388 389 0
-82 99 100 -389 0
-11 27 45 390 0
45 -51 -390 391 0
-51 -95 99 -391 0
30 -52 -56 -68 0
-5 22 46 392 0
-5 22 46 -392 0
29 92 393 394 0
29 92 393 -394 0
29 92 -393 394 0
29 92 -393 -394 0
-1 -3 9 395 0
9 57 -395 396 0
57 -88 -97 -396 0
-4 39 397 398 0
-4 39 397 -398 0
-4 39 -397 398 0
-4 39 -397 -398 0
15 -26 65 399 0
65 66 -399 400 0
66 -75 -98 -400 0
35 59 76 401 0
76 86 -401 402 0
86 87 -402 403 0
87 -90 -100 -403 0
29 -68 71 404 0
71 -77 80 -404 0
-2 26 35 405 0
35 -73 89 -405 0
79 -86 95 406 0
79 -86 95 -406 0
21 -29 -46 64 0
-18 55 -59 407 0
-59 -81 -407 408 0
-81 84 -408 409 0
84 90 -409 410 0
90 -97 -100 -410 0
-33 36 -48 411 0
-48 61 -411 412 0
61 -66 -412 413 0
-66 -82 -413 414 0
-82 85 -88 -414 0
20 32 -54 415 0
-54 -63 -415 416 0
-63 74 -416 417 0
74 -75 -93 -417 0
12 -40 42 81 0
30 85 418 419 0
30 85 418 -419 0
30 85 -418 419 0
30 85 -418 -419 0
-20 -49 -75 420 0
-20 -49 -75 -420 0
-68 83 421 422 0
-68 83 421 -422 0
-68 83 -421 422 0
-68 83 -421 -422 0
-1 -13 42 423 0
42 -48 -90 -423 0
1 8 35 424 0
35 -39 -424 425 0
-39 -58 -425 426 0
-58 -67 87 -426 0
-35 43 -81 -95 0
-29 42 67 427 0
-29 42 67 -427 0
11 -17 -27 34 0
6 42 52 428 0
52 -80 96 -428 0
59 -60 -82 429 0
59 -60 -82 -429 0
-21 -72 -83 -88 0
10 62 -75 -90 0
15 20 36 430 0
36 38 -430 431 0
38 -46 -431 432 0
-46 -64 -432 433 0
-64 67 -433 434 0
67 -77 92 -434 0
17 22 37 435 0
37 -74 -435 436 0
-74 -86 -92 -436 0
35 -55 69 437 0
69 -71 -91 -437 0
77 -78 90 438 0
77 -78 90 -438 0
10 -12 -16 439 0
-16 43 -439 440 0
43 59 -440 441 0
59 61 -441 442 0
61 -83 -442 443 0
-83 86 88 -443 0
-4 17 66 444 0
66 -71 99 -444 0
-9 -44 -83 87 0
-29 -41 61 -71 0
24 -60 -69 75 0
-12 -21 -28 445 0
-28 32 -445 446 0
32 -45 -446 447 0
-45 69 71 -447 0
-11 14 -29 448 0
-29 79 92 -448 0
-4 -54 -83 -94 0
-5 25 -30 449 0
-30 33 -72 -449 0
1 4 -6 450 0
-6 -15 -450 451 0
-15 -41 -451 452 0
-41 -52 63 -452 0
2 -51 56 453 0
56 -69 -453 454 0
-69 87 -97 -454 0
34 90 95 455 0
34 90 95 -455 0
9 27 34 456 0
34 35 96 -456 0
-29 32 -45 457 0
-45 -62 -99 -457 0
-24 78 86 458 0
86 89 96 -458 0
8 -19 41 459 0
41 60 -459 460 0
60 -66 -460 461 0
-66 -83 -85 -461 0
69 -86 -91 94 0
-2 -61 462 463 0
-2 -61 462 -463 0
-2 -61 -462 463 0
-2 -61 -462 -463 0
-19 34 -59 464 0
-59 77 -464 465 0
77 80 86 -465 0
19 30 -64 -93 0
35 -49 84 -86 0
1 23 32 466 0
32 72 -466 467 0
72 93 94 -467 0
33 74 89 468 0
33 74 89 -468 0
-22 88 -91 469 0
-22 88 -91 -469 0
-17 -21 470 471 0
-17 -21 470 -471 0
-17 -21 -470 471 0
-17 -21 -470 -471 0
25 56 -73 472 0
25 56 -73 -472 0
-7 29 -52 473 0
-52 -56 -68 -473 0
-3 -47 49 474 0
49 -50 -474 475 0
-50 60 -475 476 0
60 -64 -476 477 0
-64 -67 71 -477 0
9 -20 -31 478 0
-31 70 -478 479 0
70 94 -479 480 0
94 97 100 -480 0
10 28 -33 481 0
10 28 -33 -481 0
-37 42 46 482 0
46 -58 -482 483 0
-58 60 64 -483 0
-1 18 -43 484 0
-43 65 -484 485 0
65 69 -485 486 0
69 81 -98 -486 0
11 21 -30 -82 0
7 11 -14 -62 0
11 -26 37 487 0
37 43 -487 488 0
43 46 -488 489 0
46 48 -489 490 0
48 -62 -78 -490 0
-16 -40 -45 -58 0
22 27 -30 491 0
-30 -43 -491 492 0
-43 -85 -492 493 0
-85 -90 -97 -493 0
11 -13 -16 494 0
-16 -37 -60 -494 0
-2 49 495 496 0
-2 49 495 -496 0
-2 49 -495 496 0
-2 49 -495 -496 0
4 68 92 497 0
4 68 92 -497 0
42 43 -58 96 0
10 -19 40 56 0
1 -13 17 498 0
17 19 -498 499 0
19 -22 30 -499 0
11 17 -54 500 0
11 17 -54 -500 0
-2 -76 501 502 0
-2 -76 501 -502 0
-2 -76 -501 502 0
-2 -76 -501 -502 0
1 2 -43 503 0
-43 -47 -503 504 0
-47 -51 78 -504 0
-2 15 -80 -90 0
32 -37 -54 505 0
-54 61 -505 506 0
61 66 -506 507 0
66 -71 81 -507 0
18 -20 -25 508 0
-25 29 -508 509 0
29 35 -509 510 0
35 46 -510 511 0
46 55 98 -511 0
-7 -20 24 512 0
24 36 -512 513 0
36 -39 -513 514 0
-39 45 -514 515 0
45 -51 71 -515 0
72 89 516 517 0
72 89 516 -517 0
72 89 -516 517 0
72 89 -516 -517 0
-3 -57 -77 518 0
-77 -80 -96 -518 0
-44 -74 -83 519 0
-44 -74 -83 -519 0
-17 -21 62 520 0
62 73 -520 521 0
73 -74 -521 522 0
-74 -84 -522 523 0
-84 -87 -523 524 0
-87 90 -524 525 0
90 -98 -100 -525 0
-10 23 -57 526 0
-57 72 94 -526 0
-1 -3 27 527 0
27 55 -527 528 0
55 -65 -528 529 0
-65 -73 -78 -529 0
-12 -15 -40 53 0
16 -56 60 530 0
16 -56 60 -530 0
-4 29 52 57 0
10 -64 531 532 0
10 -64 531 -532 0
10 -64 -531 532 0
10 -64 -531 -532 0
10 -24 -39 44 0
34 76 533 534 0
34 76 533 -534 0
34 76 -533 534 0
34 76 -533 -534 0
-11 28 535 536 0
-11 28 535 -536 0
-11 28 -535 536 0
-11 28 -535 -536 0
28 -34 56 537 0
56 57 -537 538 0
57 -69 -99 -538 0
-20 24 -39 539 0
-39 53 -539 540 0
53 56 -540 541 0
56 58 90 -541 0
-22 42 62 542 0
62 65 -542 543 0
65 66 -543 544 0
66 -98 100 -544 0
16 -30 52 545 0
16 -30 52 -545 0
-7 39 50 -96 0
-23 -55 58 546 0
-23 -55 58 -546 0
18 19 71 547 0
18 19 71 -547 0
28 47 49 548 0
49 51 -548 549 0
51 86 -549 550 0
86 -95 98 -550 0
45 50 -92 551 0
45 50 -92 -551 0
-23 -36 -46 552 0
-23 -36 -46 -552 0
6 17 74 553 0
74 -83 -95 -553 0
-5 11 -47 554 0
-5 11 -47 -554 0
1 20 21 555 0
21 -56 -555 556 0
-56 65 75 -556 0
8 -13 -32 557 0
-32 34 -557 558 0
34 39 -45 -558 0
42 -44 -77 -97 0
24 26 -41 559 0
-41 43 79 -559 0
-49 -71 -81 560 0
-49 -71 -81 -560 0
-44 -67 -82 561 0
-44 -67 -82 -561 0
-26 -39 61 100 0
2 -3 -17 562 0
-17 27 -562 563 0
27 -58 -563 564 0
-58 -60 -564 565 0
-60 -83 -565 566 0
-83 85 -86 -566 0
3 12 -24 567 0
-24 -28 64 -567 0
-45 76 568 569 0
-45 76 568 -569 0
-45 76 -568 569 0
-45 76 -568 -569 0
9 12 41 570 0
41 97 -100 -570 0
87 98 571 572 0
87 98 571 -572 0
87 98 -571 572 0
87 98 -571 -572 0
66 -80 84 573 0
84 -95 -100 -573 0
5 6 -22 574 0
-22 26 -574 575 0
26 28 -575 576 0
28 49 -576 577 0
49 -56 -577 578 0
-56 -65 -578 579 0
-65 -82 -87 -579 0
34 49 580 581 0
34 49 580 -581 0
34 49 -580 581 0
34 49 -580 -581 0
-15 -40 51 582 0
51 52 -582 583 0
52 -67 -583 584 0
-67 -70 97 -584 0
29 32 54 585 0
54 -69 -78 -585 0
29 -50 62 -63 0
15 -21 -33 586 0
-33 -54 -586 587 0
-54 56 -587 588 0
56 57 -588 589 0
57 -59 -589 590 0
-59 61 -590 591 0
61 62 -591 592 0
62 -64 -69 -592 0
-7 28 -49 593 0
-7 28 -49 -593 0
1 20 35 594 0
35 -58 -594 595 0
-58 -67 -595 596 0
-67 79 90 -596 0
6 -42 -92 100 0
7 -35 53 -71 0
28 45 -85 90 0
10 24 -39 597 0
-39 -55 -597 598 0
-55 -63 91 -598 0
39 -43 -82 88 0
-4 -11 599 600 0
-4 -11 599 -600 0
-4 -11 -599 600 0
-4 -11 -599 -600 0
29 43 -54 65 0
31 -77 -82 601 0
31 -77 -82 -601 0
12 19 28 602 0
28 30 -602 603 0
30 35 -603 604 0
35 46 -604 605 0
46 -60 -605 606 0
-60 -63 -606 607 0
-63 73 99 -607 0
-4 -31 39 48 0
-10 15 -35 608 0
-35 -66 -608 609 0
-66 -75 -609 610 0
-75 86 -610 611 0
86 87 94 -611 0
-26 -58 77 612 0
77 -82 93 -612 0
-10 35 -52 613 0
-52 93 97 -613 0
33 -66 -79 98 0
2 -8 11 614 0
11 29 -614 615 0
29 -31 -615 616 0
-31 -81 100 -616 0
16 78 88 617 0
16 78 88 -617 0
-29 -67 87 618 0
-29 -67 87 -618 0
49 50 -55 619 0
-55 -69 -619 620 0
-69 77 -79 -620 0
33 61 621 622 0
33 61 621 -622 0
33 61 -621 622 0
33 61 -621 -622 0
-11 15 -37 623 0
-37 41 -623 624 0
41 -73 84 -624 0
-33 56 -71 625 0
-71 -76 -625 626 0
-76 -80 -626 627 0
-80 93 98 -627 0
-34 58 -65 628 0
-34 58 -65 -628 0
31 -34 41 629 0
41 76 -629 630 0
76 -86 -97 -630 0
75 77 95 631 0
75 77 95 -631 0
3 -30 36 632 0
36 61 -92 -632 0
50 100 633 634 0
50 100 633 -634 0
50 100 -633 634 0
50 100 -633 -634 0
5 -86 89 -99 0
8 15 -20 635 0
-20 73 74 -635 0
-32 72 78 93 0
-31 34 -55 -72 0
-45 64 69 636 0
69 78 -90 -636 0
-15 -41 52 637 0
52 54 -637 638 0
54 -75 -638 639 0
-75 -77 -639 640 0
-77 86 -640 641 0
86 -92 -96 -641 0
-15 -44 95 100 0
25 53 80 642 0
25 53 80 -642 0
-2 -25 32 643 0
32 -38 69 -643 0
26 -30 -92 644 0
26 -30 -92 -644 0
-27 58 61 645 0
61 -68 74 -645 0
-7 -12 -18 646 0
-18 77 -646 647 0
77 91 92 -647 0
-31 40 -43 648 0
-43 -67 -648 649 0
-67 -71 -649 650 0
-71 99 100 -650 0
-8 -14 -27 651 0
-27 54 -651 652 0
54 56 -652 653 0
56 73 -653 654 0
73 -86 -654 655 0
-86 93 -94 -655 0
-1 39 -49 656 0
-49 65 -76 -656 0
-9 -13 -18 657 0
-18 -48 -657 658 0
-48 93 100 -658 0
-11 -25 -29 659 0
-29 -33 -659 660 0
-33 43 -660 661 0
43 -62 -661 662 0
-62 -82 -662 663 0
-82 87 -94 -663 0
3 -14 -43 664 0
-43 45 85 -664 0
-13 -16 29 96 0
25 -30 37 665 0
37 38 -665 666 0
38 73 -86 -666 0
12 14 27 667 0
27 28 -667 668 0
28 44 -668 669 0
44 48 -669 670 0
48 -54 -78 -670 0
7 20 23 671 0
23 25 -671 672 0
25 -39 -672 673 0
-39 -56 -673 674 0
-56 82 -92 -674 0
-19 -25 675 676 0
-19 -25 675 -676 0
-19 -25 -675 676 0
-19 -25 -675 -676 0
8 9 -15 677 0
-15 36 -677 678 0
36 -55 -96 -678 0
5 31 -44 679 0
-44 -54 -65 -679 0
18 24 67 680 0
18 24 67 -680 0
-33 -40 67 681 0
67 -88 96 -681 0
24 -37 -60 682 0
-60 -79 92 -682 0
22 23 -34 683 0
22 23 -34 -683 0
-1 8 35 684 0
35 -36 -684 685 0
-36 -47 -685 686 0
-47 -62 -686 687 0
-62 -65 -687 688 0
-65 -86 -98 -688 0
-24 -29 35 689 0
35 36 -689 690 0
36 64 96 -690 0
44 -73 76 691 0
76 -85 -88 -691 0
-33 38 67 692 0
67 -82 86 -692 0
20 -42 51 693 0
51 -52 -55 -693 0
-57 67 694 695 0
-57 67 694 -695 0
-57 67 -694 695 0
-57 67 -694 -695 0
8 9 20 696 0
20 28 -696 697 0
28 -36 -697 698 0
-36 -43 -82 -698 0
-4 8 -16 699 0
-16 19 -699 700 0
19 -20 -700 701 0
-20 54 -701 702 0
54 66 -702 703 0
66 90 -91 -703 0
-20 36 54 -60 0
39 -61 -65 -77 0
1 -14 31 55 0
-6 38 704 705 0
-6 38 704 -705 0
-6 38 -704 705 0
-6 38 -704 -705 0
-10 -12 18 706 0
18 66 -97 -706 0
-7 -13 48 707 0
-7 -13 48 -707 0
-9 24 -35 708 0
-35 74 -708 709 0
74 75 -84 -709 0
44 68 85 710 0
85 95 -710 711 0
95 96 -99 -711 0
38 -77 80 712 0
80 -86 89 -712 0
4 -11 35 713 0
35 44 -713 714 0
44 -82 98 -714 0
88 -95 715 716 0
88 -95 715 -716 0
88 -95 -715 716 0
88 -95 -715 -716 0
-6 -9 30 717 0
30 -38 -717 718 0
-38 -55 73 -718 0
-27 64 -68 719 0
-68 -90 -719 720 0
-90 93 99 -720 0
-2 -42 45 721 0
45 -57 -721 722 0
-57 70 -722 723 0
70 -75 -723 724 0
-75 -91 -724 725 0
-91 94 -97 -725 0
29 41 -63 726 0
-63 -72 -726 727 0
-72 83 -84 -727 0
21 -49 51 90 0
39 94 728 729 0
39 94 728 -729 0
39 94 -728 729 0
39 94 -728 -729 0
-29 -58 -84 730 0
-29 -58 -84 -730 0
-77 92 731 732 0
-77 92 731 -732 0
-77 92 -731 732 0
-77 92 -731 -732 0
-10 -22 51 733 0
51 -57 -99 -733 0
-4 10 17 734 0
17 44 -734 735 0
44 -48 -735 736 0
-48 -67 -736 737 0
-67 -76 96 -737 0
-44 52 -90 738 0
-44 52 -90 -738 0
-38 51 76 739 0
-38 51 76 -739 0
5 20 -26 740 0
-26 -36 43 -740 0
15 51 61 -89 0
68 -69 -91 741 0
68 -69 -91 -741 0
-30 -81 -92 -97 0
1 19 71 742 0
71 -84 -99 -742 0
-1 24 29 743 0
29 45 -743 744 0
45 47 -744 745 0
47 -55 -745 746 0
-55 -73 -746 747 0
-73 76 -86 -747 0
26 31 46 748 0
46 -83 -95 -748 0
44 -64 78 749 0
78 -80 -100 -749 0
86 -87 99 750 0
86 -87 99 -750 0
8 19 -21 751 0
-21 -25 -751 752 0
-25 52 -752 753 0
52 68 -753 754 0
68 70 -754 755 0
70 -92 -755 756 0
-92 95 97 -756 0
-13 26 75 -80 0
-18 -53 -92 96 0
-38 -50 70 -80 0
33 -69 -78 84 0
1 -21 -30 757 0
-30 -37 -757 758 0
-37 41 -758 759 0
41 -54 -759 760 0
-54 78 80 -760 0
-3 -20 23 761 0
23 -38 88 -761 0
-13 -63 -92 762 0
-13 -63 -92 -762 0
-14 34 -39 763 0
-39 42 -81 -763 0
-6 10 13 764 0
13 -15 -764 765 0
-15 -24 -765 766 0
-24 -50 -766 767 0
-50 -61 72 -767 0
4 11 -60 768 0
-60 65 -768 769 0
65 -78 96 -769 0
5 43 99 770 0
5 43 99 -770 0
-8 18 36 771 0
36 43 44 -771 0
5 -38 41 772 0
41 -54 -71 -772 0
-33 87 95 98 0
3 17 -28 773 0
-28 50 -773 774 0
50 69 -774 775 0
69 -75 -775 776 0
-75 -92 -94 -776 0
78 -95 -100 777 0
78 -95 -100 -777 0
-11 -70 778 779 0
-11 -70 778 -779 0
-11 -70 -778 779 0
-11 -70 -778 -779 0
-2 -28 43 780 0
43 -68 -780 781 0
-68 86 -781 782 0
86 89 95 -782 0
28 39 -73 783 0
28 39 -73 -783 0
2 3 44 784 0
44 -58 -784 785 0
-58 93 -95 -785 0
10 32 41 81 0
42 83 98 786 0
42 83 98 -786 0
-31 97 -100 787 0
-31 97 -100 -787 0
-26 -30 788 789 0
-26 -30 788 -789 0
-26 -30 -788 789 0
-26 -30 -788 -789 0
34 65 -82 790 0
34 65 -82 -790 0
-16 38 -61 791 0
-61 -65 -77 -791 0
3 6 9 792 0
9 -12 -792 793 0
-12 -56 -793 794 0
-56 58 -794 795 0
58 -59 -795 796 0
-59 69 -796 797 0
69 -73 -797 798 0
-73 -76 80 -798 0
18 -29 -40 79 0
19 37 -42 799 0
19 37 -42 -799 0
-7 -46 51 800 0
51 55 -800 801 0
55 -67 -801 802 0
-67 69 73 -802 0
-10 27 -52 803 0
-52 74 -803 804 0
74 78 90 -804 0
20 30 -39 -91 0
16 20 -23 -71 0
20 -35 46 805 0
46 52 -805 806 0
52 55 -806 807 0
55 57 -807 808 0
57 -71 -87 -808 0
-6 -25 -49 809 0
-49 -54 -67 -809 0
31 36 -39 810 0
-39 -52 -810 811 0
-52 -94 -99 -811 0
20 -22 -25 812 0
-25 -46 -69 -812 0
1 -11 58 813 0
1 -11 58 -813 0
5 13 77 814 0
5 13 77 -814 0
51 52 -67 815 0
51 52 -67 -815 0
19 -28 49 65 0
10 -22 26 816 0
26 28 -816 817 0
28 -31 39 -817 0
20 26 -63 818 0
20 26 -63 -818 0
-11 -85 819 820 0
-11 -85 819 -820 0
-11 -85 -819 820 0
-11 -85 -819 -820 0
10 11 -52 821 0
-52 -56 -821 822 0
-56 -60 87 -822 0
-11 24 -89 -99 0
7 41 -46 823 0
-46 -63 -823 824 0
-63 70 -824 825 0
70 75 -825 826 0
75 -80 90 -826 0
27 -29 -34 827 0
-34 38 -827 828 0
38 44 -828 829 0
44 55 64 -829 0
-16 -29 33 830 0
33 45 -830 831 0
45 -48 -831 832 0
-48 54 -832 833 0
54 -60 80 -833 0
-5 81 98 834 0
-5 81 98 -834 0
-12 -66 -86 -89 0
-7 -9 -53 835 0
-53 -83 -92 -835 0
3 -26 -30 836 0
-30 71 -836 837 0
71 82 -837 838 0
82 -83 -838 839 0
-83 -93 -839 840 0
-93 -96 99 -840 0
-19 32 -66 81 0
-10 -12 36 841 0
36 64 -841 842 0
64 -74 -842 843 0
-74 -82 -87 -843 0
-21 -24 -49 62 0
25 -65 69 844 0
25 -65 69 -844 0
-13 38 61 66 0
19 -73 845 846 0
19 -73 845 -846 0
19 -73 -845 846 0
19 -73 -845 -846 0
19 -33 -48 53 0
43 85 847 848 0
43 85 847 -848 0
43 85 -847 848 0
43 85 -847 -848 0
-8 -20 37 849 0
-8 -20 37 -849 0
37 -43 65 850 0
65 66 -78 -850 0
-7 9 -29 851 0
-29 33 -851 852 0
33 -48 -852 853 0
-48 62 -853 854 0
62 65 -854 855 0
65 67 99 -855 0
-31 51 71 856 0
71 74 75 -856 0
-5 25 -39 61 0
-16 48 59 857 0
-16 48 59 -857 0
-32 -64 67 858 0
-32 -64 67 -858 0
-4 7 27 859 0
27 28 80 -859 0
-1 37 56 860 0
56 58 -860 861 0
58 60 95 -861 0
54 59 862 863 0
54 59 862 -863 0
54 59 -862 863 0
54 59 -862 -863 0
-4 -32 -45 -55 0
15 26 83 -92 0
-14 20 -56 864 0
-14 20 -56 -864 0
10 29 30 865 0
30 -65 -865 866 0
-65 74 84 -866 0
-6 17 -22 867 0
-22 -41 -867 868 0
-41 43 -868 869 0
43 48 -54 -869 0
51 -53 -86 870 0
51 -53 -86 -870 0
33 35 -50 871 0
-50 52 88 -871 0
-58 -80 -90 872 0
-58 -80 -90 -872 0
9 -53 -76 -91 0
-35 -48 70 873 0
-35 -48 70 -873 0
11 -12 -26 874 0
-26 36 -874 875 0
36 -67 -875 876 0
-67 -69 -876 877 0
-69 -92 -877 878 0
-92 94 -95 -878 0
12 21 -33 879 0
-33 -37 73 -879 0
6 -9 -54 85 0
7 18 21 50 0
-4 -9 96 880 0
-4 -9 96 -880 0
75 -89 93 881 0
75 -89 93 -881 0
14 15 -31 882 0
-31 35 -882 883 0
35 37 -883 884 0
37 58 -884 885 0
58 -65 -885 886 0
-65 -74 -886 887 0
-74 -91 -96 -887 0
6 43 58 888 0
6 43 58 -888 0
-24 -49 60 889 0
60 61 -889 890 0
61 -76 -79 -890 0
38 41 63 891 0
63 -78 -87 -891 0
38 -59 71 -72 0
24 -30 -42 892 0
-42 -63 -892 893 0
-63 65 -893 894 0
65 66 -894 895 0
66 -68 -895 896 0
-68 70 -896 897 0
70 71 -897 898 0
71 -73 -78 -898 0
-16 37 -58 899 0
-16 37 -58 -899 0
-1 9 10 900 0
10 29 -900 901 0
29 44 -901 902 0
44 -67 -902 903 0
-67 -76 -903 904 0
-76 88 99 -904 0
15 -51 905 906 0
15 -51 905 -906 0
15 -51 -905 906 0
15 -51 -905 -906 0
16 -44 62 -80 0
37 54 -94 99 0
19 33 -48 907 0
-48 -64 -907 908 0
-64 -72 100 -908 0
48 -52 -91 97 0
-13 -20 909 910 0
-13 -20 909 -910 0
-13 -20 -909 910 0
-13 -20 -909 -910 0
38 52 -63 74 0
8 40 -86 -91 0
21 28 37 911 0
37 39 -911 912 0
39 44 -912 913 0
44 55 -913 914 0
55 -69 -914 915 0
-69 -72 82 -915 0
3 -13 -40 916 0
-40 48 57 -916 0
2 -19 24 917 0
24 -44 -917 918 0
-44 -75 -918 919 0
-75 -84 -919 920 0
-84 95 96 -920 0
2 6 -35 921 0
-35 -67 -921 922 0
-67 86 -91 -922 0
7 -19 44 -61 0
9 42 -75 -88 0
11 -17 20 923 0
20 38 -923 924 0
38 -40 -90 -924 0
25 87 97 925 0
25 87 97 -925 0
-38 -76 96 926 0
-38 -76 96 -926 0
58 59 -64 927 0
-64 -78 -927 928 0
-78 86 -88 -928 0
42 70 929 930 0
42 70 929 -930 0
42 70 -929 930 0
42 70 -929 -930 0
2 7 -20 931 0
-20 24 -931 932 0
24 -46 -932 933 0
-46 50 -933 934 0
50 -82 93 -934 0
-42 65 -80 935 0
-80 -85 -89 -935 0
-6 -43 67 -74 0
4 40 -43 936 0
-43 50 -936 937 0
50 85 -95 -937 0
-1 84 86 938 0
-1 84 86 -938 0
9 12 -39 939 0
-39 45 70 -939 0
-8 59 940 941 0
-8 59 940 -941 0
-8 59 -940 941 0
-8 59 -940 -941 0
14 -95 98 942 0
14 -95 98 -942 0
2 17 24 943 0
24 -29 -943 944 0
-29 82 83 -944 0
-41 81 87 945 0
-41 81 87 -945 0
-40 43 -64 -81 0
-1 -5 -54 946 0
-54 73 -946 947 0
73 78 -947 948 0
78 87 -99 -948 0
4 9 -24 949 0
-24 -50 -949 950 0
-50 61 -950 951 0
61 63 -951 952 0
63 -84 -952 953 0
-84 -86 95 -953 0
-24 -53 954 955 0
-24 -53 954 -955 0
-24 -53 -954 955 0
-24 -53 -954 -955 0
34 62 89 956 0
34 62 89 -956 0
-1 -11 -34 957 0
-34 41 -957 958 0
41 -47 78 -958 0
35 -39 959 960 0
35 -39 959 -960 0
35 -39 -959 960 0
35 -39 -959 -960 0
1 -36 67 961 0
67 70 -961 962 0
70 -77 83 -962 0
8 9 -16 963 0
-16 -21 -963 964 0
-21 -27 -964 965 0
-27 86 100 -965 0
2 -3 -40 966 0
-40 49 -966 967 0
49 -52 -967 968 0
-52 -76 -80 -968 0
-17 -23 -36 969 0
-36 63 -969 970 0
63 65 -970 971 0
65 82 -95 -971 0
2 9 -10 972 0
-10 48 -972 973 0
48 -58 -973 974 0
-58 74 -85 -974 0
-3 -18 -22 975 0
-22 -27 -57 -975 0
-20 -34 -38 976 0
-38 -42 -976 977 0
-42 52 -977 978 0
52 -71 -978 979 0
-71 -91 96 -979 0
5 12 -23 980 0
-23 -52 -980 981 0
-52 54 94 -981 0
-22 -25 38 982 0
-22 -25 38 -982 0
34 -39 46 983 0
46 47 -983 984 0
47 82 -95 -984 0
-1 21 23 985 0
23 36 -985 986 0
36 37 -986 987 0
37 53 -987 988 0
53 57 -988 989 0
57 -63 -87 -989 0
16 29 32 990 0
32 34 -990 991 0
34 -48 -991 992 0
-48 -65 91 -992 0
-5 -28 -34 993 0
-5 -28 -34 -993 0
17 18 -24 994 0
-24 45 -64 -994 0
14 40 -53 995 0
-53 -63 -74 -995 0
5 27 33 76 0
1 -42 -49 996 0
-49 76 -97 -996 0
33 -46 -69 -88 0
-7 31 32 -43 0
5 -10 17 997 0
17 44 -997 998 0
44 -45 -998 999 0
-45 -56 -999 1000 0
-56 -71 -1000 1001 0
-71 -74 -95 -1001 0
-33 -38 44 1002 0
44 45 73 -1002 0
53 -82 85 1003 0
85 -94 -97 -1003 0
-42 47 76 1004 0
76 -91 95 -1004 0
29 -51 60 1005 0
60 -61 -64 -1005 0
-66 76 1006 1007 0
-66 76 1006 -1007 0
-66 76 -1006 1007 0
-66 76 -1006 -1007 0
17 18 29 1008 0
29 37 -1008 1009 0
37 -45 -1009 1010 0
-45 -52 -91 -1010 0
-13 17 -25 1011 0
-25 28 -1011 1012 0
28 -29 -1012 1013 0
-29 63 -1013 1014 0
63 75 -1014 1015 0
75 99 -100 -1015 0
-29 45 63 -69 0
48 -70 -74 -86 0
10 -23 40 64 0
-6 -15 47 1016 0
-6 -15 47 -1016 0
-19 -21 27 75 0
-16 -22 57 1017 0
-16 -22 57 -1017 0
4 5 -8 1018 0
-8 -18 -1018 1019 0
-18 33 -1019 1020 0
33 -44 -1020 1021 0
-44 83 -1021 1022 0
83 84 -93 -1022 0
53 77 94 1023 0
53 77 94 -1023 0
7 47 -86 1024 0
-86 89 -1024 1025 0
89 -95 98 -1025 0
-4 13 -20 1026 0
-20 44 -1026 1027 0
44 53 -91 -1027 0
2 8 -15 1028 0
-15 -18 -1028 1029 0
-18 39 -1029 1030 0
39 -47 -1030 1031 0
-47 -64 82 -1031 0
3 -6 -36 1032 0
-36 73 -1032 1033 0
73 -77 -99 -1033 0
-11 -51 54 1034 0
54 -66 -1034 1035 0
-66 79 -1035 1036 0
79 -84 -100 -1036 0
38 50 -72 1037 0
-72 -81 -1037 1038 0
-81 92 -93 -1038 0
3 30 -58 1039 0
-58 60 99 -1039 0
1 -38 -67 -93 0
-8 -86 1040 1041 0
-8 -86 1040 -1041 0
-8 -86 -1040 1041 0
-8 -86 -1040 -1041 0
5 -19 -31 1042 0
-31 60 -66 -1042 0
-13 19 26 1043 0
26 53 -1043 1044 0
53 -57 -1044 1045 0
-57 -76 -85 -1045 0
-53 61 -99 1046 0
-53 61 -99 -1046 0
-47 60 85 1047 0
-47 60 85 -1047 0
14 29 -35 1048 0
-35 -45 52 -1048 0
24 60 70 -98 0
-1 -6 77 1049 0
77 -78 -100 -1049 0
-39 -90 1050 1051 0
-39 -90 1050 -1051 0
-39 -90 -1050 1051 0
-39 -90 -1050 -1051 0
-8 -84 1052 1053 0
-8 -84 1052 -1053 0
-8 -84 -1052 1053 0
-8 -84 -1052 -1053 0
10 28 80 -93 0
-4 -10 33 1054 0
33 38 -1054 1055 0
38 54 -1055 1056 0
54 56 -1056 1057 0
56 -64 -1057 1058 0
-64 -82 -1058 1059 0
-82 85 -95 -1059 0
35 40 55 -92 0
-9 95 1060 1061 0
-9 95 1060 -1061 0
-9 95 -1060 1061 0
-9 95 -1060 -1061 0
8 53 -73 1062 0
-73 87 -89 -1062 0
95 -96 1063 1064 0
95 -96 1063 -1064 0
95 -96 -1063 1064 0
95 -96 -1063 -1064 0
-1 4 6 -27 0
17 28 -30 1065 0
-30 -34 -1065 1066 0
-34 61 -1066 1067 0
61 77 79 -1067 0
-1 5 -22 1068 0
-22 35 -1068 1069 0
35 84 -89 -1069 0
-27 -62 1070 1071 0
-27 -62 1070 -1071 0
-27 -62 -1070 1071 0
-27 -62 -1070 -1071 0
-47 -59 79 -89 0
42 -78 -87 93 0
10 -30 -39 1072 0
-39 -46 -1072 1073 0
-46 50 -1073 1074 0
50 -63 -1074 1075 0
-63 87 89 -1075 0
-1 -12 -29 1076 0
-29 32 -1076 1077 0
32 -47 97 -1077 0
-22 -72 1078 1079 0
-22 -72 1078 -1079 0
-22 -72 -1078 1079 0
-22 -72 -1078 -1079 0
-23 43 -48 1080 0
-48 51 -90 -1080 0
5 -15 19 1081 0
19 22 -1081 1082 0
22 -24 -1082 1083 0
-24 -33 -1083 1084 0
-33 -59 -1084 1085 0
-59 -70 81 -1085 0
8 13 20 1086 0
20 -69 -1086 1087 0
-69 74 -87 -1087 0
14 52 1088 1089 0
14 52 1088 -1089 0
14 52 -1088 1089 0
14 52 -1088 -1089 0
-17 27 45 1090 0
45 52 53 -1090 0
4 7 14 1091 0
14 -47 -1091 1092 0
-47 50 -1092 1093 0
50 -63 -80 -1093 0
-1 -3 -42 96 0
-4 -9 12 1094 0
12 26 -1094 1095 0
26 -37 -1095 1096 0
-37 59 -1096 1097 0
59 78 -84 -1097 0
4 -20 -79 1098 0
4 -20 -79 -1098 0
-11 -37 52 1099 0
52 -77 -1099 1100 0
-77 95 98 -1100 0
2 -4 37 1101 0
37 48 -82 -1101 0
11 12 53 -67 0
7 19 41 1102 0
41 50 90 -1102 0
6 -9 51 92 0
-35 -39 1103 1104 0
-35 -39 1103 -1104 0
-35 -39 -1103 1104 0
-35 -39 -1103 -1104 0
43 74 -91 1105 0
43 74 -91 -1105 0
-25 47 -70 1106 0
-70 -74 -86 -1106 0
12 15 18 1107 0
18 -21 -1107 1108 0
-21 -65 -1108 1109 0
-65 67 -1109 1110 0
67 -68 -1110 1111 0
-68 78 -1111 1112 0
78 -82 -1112 1113 0
-82 -85 89 -1113 0
27 -38 -49 88 0
28 46 -51 1114 0
28 46 -51 -1114 0
-16 -55 60 1115 0
60 64 -1115 1116 0
64 -76 -1116 1117 0
-76 78 82 -1117 0
-19 36 -61 1118 0
-61 83 -1118 1119 0
83 87 99 -1119 0
29 39 -48 -100 0
25 29 -32 -80 0
29 -44 55 1120 0
55 61 -1120 1121 0
61 64 -1121 1122 0
64 66 -1122 1123 0
66 -80 -96 -1123 0
-3 -8 -15 1124 0
-15 -34 -1124 1125 0
-34 -58 -1125 1126 0
-58 -63 -76 -1126 0
40 45 -48 -61 0
29 -31 -34 1127 0
-34 -55 -78 -1127 0
10 -20 67 1128 0
10 -20 67 -1128 0
14 22 86 1129 0
14 22 86 -1129 0
60 61 -76 1130 0
60 61 -76 -1130 0
28 -37 58 74 0
19 -31 35 1131 0
35 37 -1131 1132 0
37 -40 48 -1132 0
29 35 -72 1133 0
29 35 -72 -1133 0
-20 -94 1134 1135 0
-20 -94 1134 -1135 0
-20 -94 -1134 1135 0
-20 -94 -1134 -1135 0
-8 19 20 1136 0
20 -61 -1136 1137 0
-61 -65 -1137 1138 0
-65 -69 96 -1138 0
-20 33 -98 1139 0
-20 33 -98 -1139 0
16 50 -55 1140 0
-55 -72 -1140 1141 0
-72 79 -1141 1142 0
79 84 -1142 1143 0
84 -89 99 -1143 0
36 -38 -43 1144 0
-43 47 -1144 1145 0
47 53 -1145 1146 0
53 64 73 -1146 0
7 -25 -38 1147 0
-38 42 -1147 1148 0
42 54 -1148 1149 0
54 -57 -1149 1150 0
-57 63 -1150 1151 0
63 -69 89 -1151 0
-14 90 1152 1153 0
-14 90 1152 -1153 0
-14 90 -1152 1153 0
-14 90 -1152 -1153 0
-1 -21 -75 1154 0
-75 -95 -98 -1154 0
-2 -5 8 1155 0
8 -16 -1155 1156 0
-16 -18 -1156 1157 0
-18 -62 -92 -1157 0
12 -35 -39 1158 0
-39 80 -1158 1159 0
80 91 -92 -1159 0
-28 41 -75 90 0
-19 -21 45 1160 0
45 73 -1160 1161 0
73 -83 -1161 1162 0
-83 -91 -96 -1162 0
-30 -33 -58 71 0
34 -74 78 1163 0
34 -74 78 -1163 0
-22 47 70 75 0
28 -82 1164 1165 0
28 -82 1164 -1165 0
28 -82 -1164 1165 0
28 -82 -1164 -1165 0
28 -42 -57 62 0
52 94 1166 1167 0
52 94 1166 -1167 0
52 94 -1166 1167 0
52 94 -1166 -1167 0
-17 -29 46 1168 0
-17 -29 46 -1168 0
8 46 -52 1169 0
-52 74 -1169 1170 0
74 75 -87 -1170 0
-16 18 -38 1171 0
-38 42 -1171 1172 0
42 -57 -1172 1173 0
-57 71 -1173 1174 0
71 74 76 -1174 0
-40 60 80 1175 0
80 83 84 -1175 0
-14 34 -48 70 0
-25 57 68 1176 0
-25 57 68 -1176 0
-41 -73 76 1177 0
-41 -73 76 -1177 0
4 -13 16 1178 0
16 36 -1178 1179 0
36 37 89 -1179 0
-10 46 65 1180 0
65 67 69 -1180 0
63 68 1181 1182 0
63 68 1181 -1182 0
63 68 -1181 1182 0
63 68 -1181 -1182 0
-1 -13 -41 1183 0
-41 -54 -64 -1183 0
24 35 92 1184 0
24 35 92 -1184 0
-23 29 -65 1185 0
-23 29 -65 -1185 0
19 38 39 1186 0
39 -74 -1186 1187 0
-74 83 93 -1187 0
-15 26 -31 1188 0
-31 -50 -1188 1189 0
-50 52 -1189 1190 0
52 57 -63 -1190 0
60 -62 -95 1191 0
60 -62 -95 -1191 0
42 44 -59 1192 0
-59 61 97 -1192 0
-67 -89 -99 1193 0
-67 -89 -99 -1193 0
18 -62 -85 -100 0
-44 -57 79 1194 0
-44 -57 79 -1194 0
-1 3 -4 1195 0
-1 3 -4 -1195 0
20 -21 -35 1196 0
-35 45 -1196 1197 0
45 -76 -78 -1197 0
21 30 -42 1198 0
-42 -46 82 -1198 0
15 -18 -63 94 0
5 16 27 1199 0
27 30 59 -1199 0
2 -13 -18 1200 0
2 -13 -18 -1200 0
-5 84 -98 1201 0
-5 84 -98 -1201 0
23 24 -40 1202 0
-40 44 -1202 1203 0
44 46 -1203 1204 0
46 67 -1204 1205 0
67 -74 -1205 1206 0
-74 -83 -100 -1206 0
15 52 67 1207 0
15 52 67 -1207 0
-33 -58 69 1208 0
69 70 -1208 1209 0
70 -85 -88 -1209 0
47 50 72 1210 0
72 -87 -96 -1210 0
47 -68 80 -81 0
33 -39 -51 1211 0
-51 -72 -1211 1212 0
-72 74 -1212 1213 0
74 75 -1213 1214 0
75 -77 -1214 1215 0
-77 79 -1215 1216 0
79 80 -1216 1217 0
80 -82 -87 -1217 0
-25 46 -67 1218 0
-25 46 -67 -1218 0
8 -26 1219 1220 0
8 -26 1219 -1220 0
8 -26 -1219 1220 0
8 -26 -1219 -1220 0
-10 18 19 1221 0
19 38 -1221 1222 0
38 53 -1222 1223 0
53 -76 -1223 1224 0
-76 -85 97 -1224 0
24 -60 1225 1226 0
24 -60 1225 -1226 0
24 -60 -1225 1226 0
24 -60 -1225 -1226 0
-3 8 25 1227 0
25 -53 -1227 1228 0
-53 71 -89 -1228 0
9 46 63 1229 0
9 46 63 -1229 0
6 28 42 1230 0
42 -57 -1230 1231 0
-57 -73 -81 -1231 0
57 -61 -100 1232 0
57 -61 -100 -1232 0
-22 -29 1233 1234 0
-22 -29 1233 -1234 0
-22 -29 -1233 1234 0
-22 -29 -1233 -1234 0
47 61 -72 83 0
17 49 -95 -100 0
30 37 46 1235 0
46 48 -1235 1236 0
48 53 -1236 1237 0
53 64 -1237 1238 0
64 -78 -1238 1239 0
-78 -81 91 -1239 0
4 5 12 1240 0
12 -22 -1240 1241 0
-22 -49 -1241 1242 0
-49 57 66 -1242 0
11 -28 33 1243 0
33 -53 -1243 1244 0
-53 -84 -93 -1244 0
11 15 -44 1245 0
-44 -76 -1245 1246 0
-76 95 -100 -1246 0
16 -28 53 -70 0
18 51 -84 -97 0
6 20 -26 1247 0
-26 29 -1247 1248 0
29 47 -1248 1249 0
47 -49 -99 -1249 0
5 34 96 1250 0
5 34 96 -1250 0
-47 -85 1251 1252 0
-47 -85 1251 -1252 0
-47 -85 -1251 1252 0
-47 -85 -1251 -1252 0
67 68 -73 1253 0
-73 -87 -1253 1254 0
-87 95 -97 -1254 0
9 51 79 1255 0
9 51 79 -1255 0
11 16 -29 1256 0
-29 33 -1256 1257 0
33 -55 -1257 1258 0
-55 59 -91 -1258 0
-51 74 -89 1259 0
-89 -94 -98 -1259 0
-4 -15 -52 1260 0
-52 76 -83 -1260 0
13 49 -52 1261 0
-52 59 94 -1261 0
-10 93 95 1262 0
-10 93 95 -1262 0
18 21 -48 1263 0
-48 54 79 -1263 0
-4 7 -17 68 0
11 26 33 1264 0
33 -38 -1264 1265 0
-38 91 92 -1265 0
-50 90 96 1266 0
-50 90 96 -1266 0
-8 -49 52 1267 0
52 -73 -90 -1267 0
4 -10 -14 1268 0
-14 -63 -1268 1269 0
-63 82 -1269 1270 0
82 87 96 -1270 0
13 18 -33 1271 0
-33 -59 -1271 1272 0
-59 70 -1272 1273 0
70 72 -1273 1274 0
72 -93 -95 -1274 0
-33 -62 1275 1276 0
-33 -62 1275 -1276 0
-33 -62 -1275 1276 0
-33 -62 -1275 -1276 0
43 71 98 1277 0
43 71 98 -1277 0
-10 -20 -43 1278 0
-43 50 -1278 1279 0
50 -56 87 -1279 0
44 -48 1280 1281 0
44 -48 1280 -1281 0
44 -48 -1280 1281 0
44 -48 -1280 -1281 0
9 10 -45 1282 0
-45 76 -1282 1283 0
76 79 -1283 1284 0
79 -86 92 -1284 0
17 18 -25 1285 0
-25 -30 -1285 1286 0
-30 -36 95 -1286 0
-4 11 -12 1287 0
-12 -49 -1287 1288 0
-49 58 -1288 1289 0
58 -61 -1289 1290 0
-61 -85 -89 -1290 0
-26 -32 -45 1291 0
-45 72 -1291 1292 0
72 74 91 -1292 0
11 18 -19 1293 0
-19 57 -1293 1294 0
57 -67 -1294 1295 0
-67 83 -94 -1295 0
5 -12 -27 1296 0
-27 -31 -1296 1297 0
-31 -36 -66 -1297 0
3 -29 -43 1298 0
-43 -47 -1298 1299 0
-47 -51 -1299 1300 0
-51 61 -1300 1301 0
61 -80 -100 -1301 0
14 21 -32 1302 0
-32 -61 63 -1302 0
-4 -31 -34 47 0
43 -48 55 1303 0
55 56 91 -1303 0
-10 30 32 1304 0
32 45 -1304 1305 0
45 46 -1305 1306 0
46 62 -1306 1307 0
62 66 -1307 1308 0
66 -72 -96 -1308 0
25 38 41 1309 0
41 43 -1309 1310 0
43 -57 -1310 1311 0
-57 -74 100 -1311 0
-14 -37 -43 1312 0
-14 -37 -43 -1312 0
26 27 -33 1313 0
-33 54 -73 -1313 0
23 49 -62 1314 0
-62 -72 -83 -1314 0
-6 14 36 1315 0
36 42 85 -1315 0
10 -51 -58 85 0
42 -55 -78 -97 0
-4 -16 40 1316 0
40 41 -52 -1316 0
14 -19 26 1317 0
26 53 -1317 1318 0
53 -54 -1318 1319 0
-54 -65 -1319 1320 0
-65 -80 -83 -1320 0
-3 -6 -42 1321 0
-42 -47 -1321 1322 0
-47 53 -1322 1323 0
53 54 82 -1323 0
4 62 -91 94 0
-51 56 85 -100 0
38 -60 69 1324 0
69 -70 -73 -1324 0
-75 85 1325 1326 0
-75 85 1325 -1326 0
-75 85 -1325 1326 0
-75 85 -1325 -1326 0
8 -9 26 1327 0
26 27 -1327 1328 0
27 38 -1328 1329 0
38 46 -1329 1330 0
46 -54 -1330 1331 0
-54 -61 -100 -1331 0
-22 26 -34 1332 0
-34 37 -1332 1333 0
37 -38 -1333 1334 0
-38 72 84 -1334 0
-38 54 72 -78 0
57 -79 -83 -95 0
19 -32 49 73 0
-15 -24 56 1335 0
-15 -24 56 -1335 0
-28 -30 36 84 0
-2 -25 -31 66 0
3 13 14 1336 0
14 -17 -1336 1337 0
-17 -27 -1337 1338 0
-27 42 -1338 1339 0
42 -53 -1339 1340 0
-53 92 93 -1340 0
-4 7 62 86 0
16 56 -95 98 0
6 -13 22 1341 0
22 -29 -1341 1342 0
-29 53 -1342 1343 0
53 62 -100 -1343 0
-8 11 17 1344 0
17 -24 -1344 1345 0
-24 -27 -1345 1346 0
-27 48 -1346 1347 0
48 -56 -1347 1348 0
-56 -73 91 -1348 0
-9 12 -15 1349 0
-15 -45 -1349 1350 0
-45 82 -86 -1350 0
1 -2 -20 1351 0
-20 -60 -1351 1352 0
-60 63 -1352 1353 0
63 -75 -1353 1354 0
-75 88 -93 -1354 0
8 47 59 1355 0
59 -81 -90 -1355 0
12 39 -67 69 0
-2 57 1356 1357 0
-2 57 1356 -1357 0
-2 57 -1356 1357 0
-2 57 -1356 -1357 0
10 -47 -76 1358 0
10 -47 -76 -1358 0
-17 -95 1359 1360 0
-17 -95 1359 -1360 0
-17 -95 -1359 1360 0
-17 -95 -1359 -1360 0
14 -28 -40 1361 0
-40 69 -75 -1361 0
-8 -22 28 1362 0
28 35 -1362 1363 0
35 62 -1363 1364 0
62 -66 -1364 1365 0
-66 -85 -94 -1365 0
-62 70 1366 1367 0
-62 70 1366 -1367 0
-62 70 -1366 1367 0
-62 70 -1366 -1367 0
-56 69 94 1368 0
-56 69 94 -1368 0
-7 23 38 1369 0
38 -44 -1369 1370 0
-44 -54 61 -1370 0
-9 33 69 79 0
-10 -15 86 -87 0
-48 -99 1371 1372 0
-48 -99 1371 -1372 0
-48 -99 -1371 1372 0
-48 -99 -1371 -1372 0
-2 -17 -93 1373 0
-2 -17 -93 -1373 0
-4 19 37 89 0
-1 -13 -19 1374 0
-19 42 -1374 1375 0
42 47 -1375 1376 0
47 63 -1376 1377 0
63 65 -1377 1378 0
65 -73 -1378 1379 0
-73 -91 94 -1379 0
4 44 49 64 0
4 -5 17 1380 0
17 62 -1380 1381 0
62 -82 -1381 1382 0
-82 96 -98 -1382 0
-10 13 15 -36 0
26 37 -39 1383 0
-39 -43 -1383 1384 0
-43 70 -1384 1385 0
70 86 88 -1385 0
-10 14 -31 1386 0
-31 44 -1386 1387 0
44 93 -98 -1387 0
-36 -71 1388 1389 0
-36 -71 1388 -1389 0
-36 -71 -1388 1389 0
-36 -71 -1388 -1389 0
2 -56 -68 1390 0
-68 88 -98 -1390 0
51 -87 -96 1391 0
51 -87 -96 -1391 0
